NAME obj
ROWS
 N  OBJ
 G  R0      
 G  R1      
 G  R2      
 G  R3      
 G  R4      
 G  R5      
 G  R6      
 G  R7      
 G  R8      
 G  R9      
 G  R10     
 G  R11     
 G  R12     
 G  R13     
 G  R14     
 G  R15     
 G  R16     
 G  R17     
 G  R18     
 G  R19     
 G  R20     
 G  R21     
 G  R22     
 G  R23     
 G  R24     
 G  R25     
 G  R26     
 G  R27     
 G  R28     
 G  R29     
 G  R30     
 G  R31     
 G  R32     
 G  R33     
 G  R34     
 G  R35     
 G  R36     
 G  R37     
 G  R38     
 G  R39     
 G  R40     
 G  R41     
 G  R42     
 G  R43     
 G  R44     
 G  R45     
 G  R46     
 G  R47     
 G  R48     
 G  R49     
 G  R50     
 G  R51     
 G  R52     
 G  R53     
 G  R54     
 G  R55     
 G  R56     
 G  R57     
 G  R58     
 G  R59     
 G  R60     
 G  R61     
 G  R62     
 G  R63     
 G  R64     
 G  R65     
 G  R66     
 G  R67     
 G  R68     
 G  R69     
 G  R70     
 G  R71     
 G  R72     
 G  R73     
 G  R74     
 G  R75     
 G  R76     
 G  R77     
 G  R78     
 G  R79     
 G  R80     
 G  R81     
 G  R82     
 G  R83     
 G  R84     
 G  R85     
 G  R86     
 G  R87     
 G  R88     
 G  R89     
 G  R90     
 G  R91     
 G  R92     
 G  R93     
 G  R94     
 G  R95     
 G  R96     
 G  R97     
 G  R98     
 G  R99     
 G  R100    
 G  R101    
 G  R102    
 G  R103    
 G  R104    
 G  R105    
 G  R106    
 G  R107    
 G  R108    
 G  R109    
 G  R110    
 G  R111    
 G  R112    
 G  R113    
 G  R114    
 G  R115    
 G  R116    
 G  R117    
 G  R118    
 G  R119    
 G  R120    
 G  R121    
 G  R122    
 G  R123    
 G  R124    
 G  R125    
 G  R126    
 G  R127    
 G  R128    
 G  R129    
 G  R130    
 G  R131    
 G  R132    
 G  R133    
 G  R134    
 G  R135    
 G  R136    
 G  R137    
 G  R138    
 G  R139    
 G  R140    
 G  R141    
 G  R142    
 G  R143    
 G  R144    
 G  R145    
 G  R146    
 G  R147    
 G  R148    
 G  R149    
 G  R150    
 G  R151    
 G  R152    
 G  R153    
 G  R154    
 G  R155    
 G  R156    
 G  R157    
 G  R158    
 G  R159    
 G  R160    
 G  R161    
 G  R162    
 G  R163    
 G  R164    
 G  R165    
 G  R166    
 G  R167    
 G  R168    
 G  R169    
 G  R170    
 G  R171    
 G  R172    
 G  R173    
 G  R174    
 G  R175    
 G  R176    
 G  R177    
 G  R178    
 G  R179    
 G  R180    
 G  R181    
 G  R182    
 G  R183    
 G  R184    
 G  R185    
 G  R186    
 G  R187    
 G  R188    
 G  R189    
 G  R190    
 G  R191    
 G  R192    
 G  R193    
 G  R194    
 G  R195    
 G  R196    
 G  R197    
 G  R198    
 G  R199    
 G  R200    
 G  R201    
 G  R202    
 G  R203    
 G  R204    
 G  R205    
 G  R206    
 G  R207    
 G  R208    
 G  R209    
COLUMNS
    X0        OBJ       1
    X0        R0        1
    X0        R1        1
    X0        R5        1
    X0        R15       1
    X0        R35       1
    X0        R70       1
    X0        R126      1
    X1        OBJ       1
    X1        R0        1
    X1        R2        1
    X1        R6        1
    X1        R16       1
    X1        R36       1
    X1        R71       1
    X1        R127      1
    X2        OBJ       1
    X2        R0        1
    X2        R3        1
    X2        R7        1
    X2        R17       1
    X2        R37       1
    X2        R72       1
    X2        R128      1
    X3        OBJ       1
    X3        R0        1
    X3        R4        1
    X3        R8        1
    X3        R18       1
    X3        R38       1
    X3        R73       1
    X3        R129      1
    X4        OBJ       1
    X4        R1        1
    X4        R2        1
    X4        R9        1
    X4        R19       1
    X4        R39       1
    X4        R74       1
    X4        R130      1
    X5        OBJ       1
    X5        R1        1
    X5        R3        1
    X5        R10       1
    X5        R20       1
    X5        R40       1
    X5        R75       1
    X5        R131      1
    X6        OBJ       1
    X6        R1        1
    X6        R4        1
    X6        R11       1
    X6        R21       1
    X6        R41       1
    X6        R76       1
    X6        R132      1
    X7        OBJ       1
    X7        R2        1
    X7        R3        1
    X7        R12       1
    X7        R22       1
    X7        R42       1
    X7        R77       1
    X7        R133      1
    X8        OBJ       1
    X8        R2        1
    X8        R4        1
    X8        R13       1
    X8        R23       1
    X8        R43       1
    X8        R78       1
    X8        R134      1
    X9        OBJ       1
    X9        R3        1
    X9        R4        1
    X9        R14       1
    X9        R24       1
    X9        R44       1
    X9        R79       1
    X9        R135      1
    X10       OBJ       1
    X10       R5        1
    X10       R6        1
    X10       R9        1
    X10       R25       1
    X10       R45       1
    X10       R80       1
    X10       R136      1
    X11       OBJ       1
    X11       R5        1
    X11       R7        1
    X11       R10       1
    X11       R26       1
    X11       R46       1
    X11       R81       1
    X11       R137      1
    X12       OBJ       1
    X12       R5        1
    X12       R8        1
    X12       R11       1
    X12       R27       1
    X12       R47       1
    X12       R82       1
    X12       R138      1
    X13       OBJ       1
    X13       R6        1
    X13       R7        1
    X13       R12       1
    X13       R28       1
    X13       R48       1
    X13       R83       1
    X13       R139      1
    X14       OBJ       1
    X14       R6        1
    X14       R8        1
    X14       R13       1
    X14       R29       1
    X14       R49       1
    X14       R84       1
    X14       R140      1
    X15       OBJ       1
    X15       R7        1
    X15       R8        1
    X15       R14       1
    X15       R30       1
    X15       R50       1
    X15       R85       1
    X15       R141      1
    X16       OBJ       1
    X16       R9        1
    X16       R10       1
    X16       R12       1
    X16       R31       1
    X16       R51       1
    X16       R86       1
    X16       R142      1
    X17       OBJ       1
    X17       R9        1
    X17       R11       1
    X17       R13       1
    X17       R32       1
    X17       R52       1
    X17       R87       1
    X17       R143      1
    X18       OBJ       1
    X18       R10       1
    X18       R11       1
    X18       R14       1
    X18       R33       1
    X18       R53       1
    X18       R88       1
    X18       R144      1
    X19       OBJ       1
    X19       R12       1
    X19       R13       1
    X19       R14       1
    X19       R34       1
    X19       R54       1
    X19       R89       1
    X19       R145      1
    X20       OBJ       1
    X20       R15       1
    X20       R16       1
    X20       R19       1
    X20       R25       1
    X20       R55       1
    X20       R90       1
    X20       R146      1
    X21       OBJ       1
    X21       R15       1
    X21       R17       1
    X21       R20       1
    X21       R26       1
    X21       R56       1
    X21       R91       1
    X21       R147      1
    X22       OBJ       1
    X22       R15       1
    X22       R18       1
    X22       R21       1
    X22       R27       1
    X22       R57       1
    X22       R92       1
    X22       R148      1
    X23       OBJ       1
    X23       R16       1
    X23       R17       1
    X23       R22       1
    X23       R28       1
    X23       R58       1
    X23       R93       1
    X23       R149      1
    X24       OBJ       1
    X24       R16       1
    X24       R18       1
    X24       R23       1
    X24       R29       1
    X24       R59       1
    X24       R94       1
    X24       R150      1
    X25       OBJ       1
    X25       R17       1
    X25       R18       1
    X25       R24       1
    X25       R30       1
    X25       R60       1
    X25       R95       1
    X25       R151      1
    X26       OBJ       1
    X26       R19       1
    X26       R20       1
    X26       R22       1
    X26       R31       1
    X26       R61       1
    X26       R96       1
    X26       R152      1
    X27       OBJ       1
    X27       R19       1
    X27       R21       1
    X27       R23       1
    X27       R32       1
    X27       R62       1
    X27       R97       1
    X27       R153      1
    X28       OBJ       1
    X28       R20       1
    X28       R21       1
    X28       R24       1
    X28       R33       1
    X28       R63       1
    X28       R98       1
    X28       R154      1
    X29       OBJ       1
    X29       R22       1
    X29       R23       1
    X29       R24       1
    X29       R34       1
    X29       R64       1
    X29       R99       1
    X29       R155      1
    X30       OBJ       1
    X30       R25       1
    X30       R26       1
    X30       R28       1
    X30       R31       1
    X30       R65       1
    X30       R100      1
    X30       R156      1
    X31       OBJ       1
    X31       R25       1
    X31       R27       1
    X31       R29       1
    X31       R32       1
    X31       R66       1
    X31       R101      1
    X31       R157      1
    X32       OBJ       1
    X32       R26       1
    X32       R27       1
    X32       R30       1
    X32       R33       1
    X32       R67       1
    X32       R102      1
    X32       R158      1
    X33       OBJ       1
    X33       R28       1
    X33       R29       1
    X33       R30       1
    X33       R34       1
    X33       R68       1
    X33       R103      1
    X33       R159      1
    X34       OBJ       1
    X34       R31       1
    X34       R32       1
    X34       R33       1
    X34       R34       1
    X34       R69       1
    X34       R104      1
    X34       R160      1
    X35       OBJ       1
    X35       R35       1
    X35       R36       1
    X35       R39       1
    X35       R45       1
    X35       R55       1
    X35       R105      1
    X35       R161      1
    X36       OBJ       1
    X36       R35       1
    X36       R37       1
    X36       R40       1
    X36       R46       1
    X36       R56       1
    X36       R106      1
    X36       R162      1
    X37       OBJ       1
    X37       R35       1
    X37       R38       1
    X37       R41       1
    X37       R47       1
    X37       R57       1
    X37       R107      1
    X37       R163      1
    X38       OBJ       1
    X38       R36       1
    X38       R37       1
    X38       R42       1
    X38       R48       1
    X38       R58       1
    X38       R108      1
    X38       R164      1
    X39       OBJ       1
    X39       R36       1
    X39       R38       1
    X39       R43       1
    X39       R49       1
    X39       R59       1
    X39       R109      1
    X39       R165      1
    X40       OBJ       1
    X40       R37       1
    X40       R38       1
    X40       R44       1
    X40       R50       1
    X40       R60       1
    X40       R110      1
    X40       R166      1
    X41       OBJ       1
    X41       R39       1
    X41       R40       1
    X41       R42       1
    X41       R51       1
    X41       R61       1
    X41       R111      1
    X41       R167      1
    X42       OBJ       1
    X42       R39       1
    X42       R41       1
    X42       R43       1
    X42       R52       1
    X42       R62       1
    X42       R112      1
    X42       R168      1
    X43       OBJ       1
    X43       R40       1
    X43       R41       1
    X43       R44       1
    X43       R53       1
    X43       R63       1
    X43       R113      1
    X43       R169      1
    X44       OBJ       1
    X44       R42       1
    X44       R43       1
    X44       R44       1
    X44       R54       1
    X44       R64       1
    X44       R114      1
    X44       R170      1
    X45       OBJ       1
    X45       R45       1
    X45       R46       1
    X45       R48       1
    X45       R51       1
    X45       R65       1
    X45       R115      1
    X45       R171      1
    X46       OBJ       1
    X46       R45       1
    X46       R47       1
    X46       R49       1
    X46       R52       1
    X46       R66       1
    X46       R116      1
    X46       R172      1
    X47       OBJ       1
    X47       R46       1
    X47       R47       1
    X47       R50       1
    X47       R53       1
    X47       R67       1
    X47       R117      1
    X47       R173      1
    X48       OBJ       1
    X48       R48       1
    X48       R49       1
    X48       R50       1
    X48       R54       1
    X48       R68       1
    X48       R118      1
    X48       R174      1
    X49       OBJ       1
    X49       R51       1
    X49       R52       1
    X49       R53       1
    X49       R54       1
    X49       R69       1
    X49       R119      1
    X49       R175      1
    X50       OBJ       1
    X50       R55       1
    X50       R56       1
    X50       R58       1
    X50       R61       1
    X50       R65       1
    X50       R120      1
    X50       R176      1
    X51       OBJ       1
    X51       R55       1
    X51       R57       1
    X51       R59       1
    X51       R62       1
    X51       R66       1
    X51       R121      1
    X51       R177      1
    X52       OBJ       1
    X52       R56       1
    X52       R57       1
    X52       R60       1
    X52       R63       1
    X52       R67       1
    X52       R122      1
    X52       R178      1
    X53       OBJ       1
    X53       R58       1
    X53       R59       1
    X53       R60       1
    X53       R64       1
    X53       R68       1
    X53       R123      1
    X53       R179      1
    X54       OBJ       1
    X54       R61       1
    X54       R62       1
    X54       R63       1
    X54       R64       1
    X54       R69       1
    X54       R124      1
    X54       R180      1
    X55       OBJ       1
    X55       R65       1
    X55       R66       1
    X55       R67       1
    X55       R68       1
    X55       R69       1
    X55       R125      1
    X55       R181      1
    X56       OBJ       1
    X56       R70       1
    X56       R71       1
    X56       R74       1
    X56       R80       1
    X56       R90       1
    X56       R105      1
    X56       R182      1
    X57       OBJ       1
    X57       R70       1
    X57       R72       1
    X57       R75       1
    X57       R81       1
    X57       R91       1
    X57       R106      1
    X57       R183      1
    X58       OBJ       1
    X58       R70       1
    X58       R73       1
    X58       R76       1
    X58       R82       1
    X58       R92       1
    X58       R107      1
    X58       R184      1
    X59       OBJ       1
    X59       R71       1
    X59       R72       1
    X59       R77       1
    X59       R83       1
    X59       R93       1
    X59       R108      1
    X59       R185      1
    X60       OBJ       1
    X60       R71       1
    X60       R73       1
    X60       R78       1
    X60       R84       1
    X60       R94       1
    X60       R109      1
    X60       R186      1
    X61       OBJ       1
    X61       R72       1
    X61       R73       1
    X61       R79       1
    X61       R85       1
    X61       R95       1
    X61       R110      1
    X61       R187      1
    X62       OBJ       1
    X62       R74       1
    X62       R75       1
    X62       R77       1
    X62       R86       1
    X62       R96       1
    X62       R111      1
    X62       R188      1
    X63       OBJ       1
    X63       R74       1
    X63       R76       1
    X63       R78       1
    X63       R87       1
    X63       R97       1
    X63       R112      1
    X63       R189      1
    X64       OBJ       1
    X64       R75       1
    X64       R76       1
    X64       R79       1
    X64       R88       1
    X64       R98       1
    X64       R113      1
    X64       R190      1
    X65       OBJ       1
    X65       R77       1
    X65       R78       1
    X65       R79       1
    X65       R89       1
    X65       R99       1
    X65       R114      1
    X65       R191      1
    X66       OBJ       1
    X66       R80       1
    X66       R81       1
    X66       R83       1
    X66       R86       1
    X66       R100      1
    X66       R115      1
    X66       R192      1
    X67       OBJ       1
    X67       R80       1
    X67       R82       1
    X67       R84       1
    X67       R87       1
    X67       R101      1
    X67       R116      1
    X67       R193      1
    X68       OBJ       1
    X68       R81       1
    X68       R82       1
    X68       R85       1
    X68       R88       1
    X68       R102      1
    X68       R117      1
    X68       R194      1
    X69       OBJ       1
    X69       R83       1
    X69       R84       1
    X69       R85       1
    X69       R89       1
    X69       R103      1
    X69       R118      1
    X69       R195      1
    X70       OBJ       1
    X70       R86       1
    X70       R87       1
    X70       R88       1
    X70       R89       1
    X70       R104      1
    X70       R119      1
    X70       R196      1
    X71       OBJ       1
    X71       R90       1
    X71       R91       1
    X71       R93       1
    X71       R96       1
    X71       R100      1
    X71       R120      1
    X71       R197      1
    X72       OBJ       1
    X72       R90       1
    X72       R92       1
    X72       R94       1
    X72       R97       1
    X72       R101      1
    X72       R121      1
    X72       R198      1
    X73       OBJ       1
    X73       R91       1
    X73       R92       1
    X73       R95       1
    X73       R98       1
    X73       R102      1
    X73       R122      1
    X73       R199      1
    X74       OBJ       1
    X74       R93       1
    X74       R94       1
    X74       R95       1
    X74       R99       1
    X74       R103      1
    X74       R123      1
    X74       R200      1
    X75       OBJ       1
    X75       R96       1
    X75       R97       1
    X75       R98       1
    X75       R99       1
    X75       R104      1
    X75       R124      1
    X75       R201      1
    X76       OBJ       1
    X76       R100      1
    X76       R101      1
    X76       R102      1
    X76       R103      1
    X76       R104      1
    X76       R125      1
    X76       R202      1
    X77       OBJ       1
    X77       R105      1
    X77       R106      1
    X77       R108      1
    X77       R111      1
    X77       R115      1
    X77       R120      1
    X77       R203      1
    X78       OBJ       1
    X78       R105      1
    X78       R107      1
    X78       R109      1
    X78       R112      1
    X78       R116      1
    X78       R121      1
    X78       R204      1
    X79       OBJ       1
    X79       R106      1
    X79       R107      1
    X79       R110      1
    X79       R113      1
    X79       R117      1
    X79       R122      1
    X79       R205      1
    X80       OBJ       1
    X80       R108      1
    X80       R109      1
    X80       R110      1
    X80       R114      1
    X80       R118      1
    X80       R123      1
    X80       R206      1
    X81       OBJ       1
    X81       R111      1
    X81       R112      1
    X81       R113      1
    X81       R114      1
    X81       R119      1
    X81       R124      1
    X81       R207      1
    X82       OBJ       1
    X82       R115      1
    X82       R116      1
    X82       R117      1
    X82       R118      1
    X82       R119      1
    X82       R125      1
    X82       R208      1
    X83       OBJ       1
    X83       R120      1
    X83       R121      1
    X83       R122      1
    X83       R123      1
    X83       R124      1
    X83       R125      1
    X83       R209      1
    X84       OBJ       1
    X84       R126      1
    X84       R127      1
    X84       R130      1
    X84       R136      1
    X84       R146      1
    X84       R161      1
    X84       R182      1
    X85       OBJ       1
    X85       R126      1
    X85       R128      1
    X85       R131      1
    X85       R137      1
    X85       R147      1
    X85       R162      1
    X85       R183      1
    X86       OBJ       1
    X86       R126      1
    X86       R129      1
    X86       R132      1
    X86       R138      1
    X86       R148      1
    X86       R163      1
    X86       R184      1
    X87       OBJ       1
    X87       R127      1
    X87       R128      1
    X87       R133      1
    X87       R139      1
    X87       R149      1
    X87       R164      1
    X87       R185      1
    X88       OBJ       1
    X88       R127      1
    X88       R129      1
    X88       R134      1
    X88       R140      1
    X88       R150      1
    X88       R165      1
    X88       R186      1
    X89       OBJ       1
    X89       R128      1
    X89       R129      1
    X89       R135      1
    X89       R141      1
    X89       R151      1
    X89       R166      1
    X89       R187      1
    X90       OBJ       1
    X90       R130      1
    X90       R131      1
    X90       R133      1
    X90       R142      1
    X90       R152      1
    X90       R167      1
    X90       R188      1
    X91       OBJ       1
    X91       R130      1
    X91       R132      1
    X91       R134      1
    X91       R143      1
    X91       R153      1
    X91       R168      1
    X91       R189      1
    X92       OBJ       1
    X92       R131      1
    X92       R132      1
    X92       R135      1
    X92       R144      1
    X92       R154      1
    X92       R169      1
    X92       R190      1
    X93       OBJ       1
    X93       R133      1
    X93       R134      1
    X93       R135      1
    X93       R145      1
    X93       R155      1
    X93       R170      1
    X93       R191      1
    X94       OBJ       1
    X94       R136      1
    X94       R137      1
    X94       R139      1
    X94       R142      1
    X94       R156      1
    X94       R171      1
    X94       R192      1
    X95       OBJ       1
    X95       R136      1
    X95       R138      1
    X95       R140      1
    X95       R143      1
    X95       R157      1
    X95       R172      1
    X95       R193      1
    X96       OBJ       1
    X96       R137      1
    X96       R138      1
    X96       R141      1
    X96       R144      1
    X96       R158      1
    X96       R173      1
    X96       R194      1
    X97       OBJ       1
    X97       R139      1
    X97       R140      1
    X97       R141      1
    X97       R145      1
    X97       R159      1
    X97       R174      1
    X97       R195      1
    X98       OBJ       1
    X98       R142      1
    X98       R143      1
    X98       R144      1
    X98       R145      1
    X98       R160      1
    X98       R175      1
    X98       R196      1
    X99       OBJ       1
    X99       R146      1
    X99       R147      1
    X99       R149      1
    X99       R152      1
    X99       R156      1
    X99       R176      1
    X99       R197      1
    X100      OBJ       1
    X100      R146      1
    X100      R148      1
    X100      R150      1
    X100      R153      1
    X100      R157      1
    X100      R177      1
    X100      R198      1
    X101      OBJ       1
    X101      R147      1
    X101      R148      1
    X101      R151      1
    X101      R154      1
    X101      R158      1
    X101      R178      1
    X101      R199      1
    X102      OBJ       1
    X102      R149      1
    X102      R150      1
    X102      R151      1
    X102      R155      1
    X102      R159      1
    X102      R179      1
    X102      R200      1
    X103      OBJ       1
    X103      R152      1
    X103      R153      1
    X103      R154      1
    X103      R155      1
    X103      R160      1
    X103      R180      1
    X103      R201      1
    X104      OBJ       1
    X104      R156      1
    X104      R157      1
    X104      R158      1
    X104      R159      1
    X104      R160      1
    X104      R181      1
    X104      R202      1
    X105      OBJ       1
    X105      R161      1
    X105      R162      1
    X105      R164      1
    X105      R167      1
    X105      R171      1
    X105      R176      1
    X105      R203      1
    X106      OBJ       1
    X106      R161      1
    X106      R163      1
    X106      R165      1
    X106      R168      1
    X106      R172      1
    X106      R177      1
    X106      R204      1
    X107      OBJ       1
    X107      R162      1
    X107      R163      1
    X107      R166      1
    X107      R169      1
    X107      R173      1
    X107      R178      1
    X107      R205      1
    X108      OBJ       1
    X108      R164      1
    X108      R165      1
    X108      R166      1
    X108      R170      1
    X108      R174      1
    X108      R179      1
    X108      R206      1
    X109      OBJ       1
    X109      R167      1
    X109      R168      1
    X109      R169      1
    X109      R170      1
    X109      R175      1
    X109      R180      1
    X109      R207      1
    X110      OBJ       1
    X110      R171      1
    X110      R172      1
    X110      R173      1
    X110      R174      1
    X110      R175      1
    X110      R181      1
    X110      R208      1
    X111      OBJ       1
    X111      R176      1
    X111      R177      1
    X111      R178      1
    X111      R179      1
    X111      R180      1
    X111      R181      1
    X111      R209      1
    X112      OBJ       1
    X112      R182      1
    X112      R183      1
    X112      R185      1
    X112      R188      1
    X112      R192      1
    X112      R197      1
    X112      R203      1
    X113      OBJ       1
    X113      R182      1
    X113      R184      1
    X113      R186      1
    X113      R189      1
    X113      R193      1
    X113      R198      1
    X113      R204      1
    X114      OBJ       1
    X114      R183      1
    X114      R184      1
    X114      R187      1
    X114      R190      1
    X114      R194      1
    X114      R199      1
    X114      R205      1
    X115      OBJ       1
    X115      R185      1
    X115      R186      1
    X115      R187      1
    X115      R191      1
    X115      R195      1
    X115      R200      1
    X115      R206      1
    X116      OBJ       1
    X116      R188      1
    X116      R189      1
    X116      R190      1
    X116      R191      1
    X116      R196      1
    X116      R201      1
    X116      R207      1
    X117      OBJ       1
    X117      R192      1
    X117      R193      1
    X117      R194      1
    X117      R195      1
    X117      R196      1
    X117      R202      1
    X117      R208      1
    X118      OBJ       1
    X118      R197      1
    X118      R198      1
    X118      R199      1
    X118      R200      1
    X118      R201      1
    X118      R202      1
    X118      R209      1
    X119      OBJ       1
    X119      R203      1
    X119      R204      1
    X119      R205      1
    X119      R206      1
    X119      R207      1
    X119      R208      1
    X119      R209      1
RHS
    RHS1      R0        1
    RHS1      R1        1
    RHS1      R2        1
    RHS1      R3        1
    RHS1      R4        1
    RHS1      R5        1
    RHS1      R6        1
    RHS1      R7        1
    RHS1      R8        1
    RHS1      R9        1
    RHS1      R10       1
    RHS1      R11       1
    RHS1      R12       1
    RHS1      R13       1
    RHS1      R14       1
    RHS1      R15       1
    RHS1      R16       1
    RHS1      R17       1
    RHS1      R18       1
    RHS1      R19       1
    RHS1      R20       1
    RHS1      R21       1
    RHS1      R22       1
    RHS1      R23       1
    RHS1      R24       1
    RHS1      R25       1
    RHS1      R26       1
    RHS1      R27       1
    RHS1      R28       1
    RHS1      R29       1
    RHS1      R30       1
    RHS1      R31       1
    RHS1      R32       1
    RHS1      R33       1
    RHS1      R34       1
    RHS1      R35       1
    RHS1      R36       1
    RHS1      R37       1
    RHS1      R38       1
    RHS1      R39       1
    RHS1      R40       1
    RHS1      R41       1
    RHS1      R42       1
    RHS1      R43       1
    RHS1      R44       1
    RHS1      R45       1
    RHS1      R46       1
    RHS1      R47       1
    RHS1      R48       1
    RHS1      R49       1
    RHS1      R50       1
    RHS1      R51       1
    RHS1      R52       1
    RHS1      R53       1
    RHS1      R54       1
    RHS1      R55       1
    RHS1      R56       1
    RHS1      R57       1
    RHS1      R58       1
    RHS1      R59       1
    RHS1      R60       1
    RHS1      R61       1
    RHS1      R62       1
    RHS1      R63       1
    RHS1      R64       1
    RHS1      R65       1
    RHS1      R66       1
    RHS1      R67       1
    RHS1      R68       1
    RHS1      R69       1
    RHS1      R70       1
    RHS1      R71       1
    RHS1      R72       1
    RHS1      R73       1
    RHS1      R74       1
    RHS1      R75       1
    RHS1      R76       1
    RHS1      R77       1
    RHS1      R78       1
    RHS1      R79       1
    RHS1      R80       1
    RHS1      R81       1
    RHS1      R82       1
    RHS1      R83       1
    RHS1      R84       1
    RHS1      R85       1
    RHS1      R86       1
    RHS1      R87       1
    RHS1      R88       1
    RHS1      R89       1
    RHS1      R90       1
    RHS1      R91       1
    RHS1      R92       1
    RHS1      R93       1
    RHS1      R94       1
    RHS1      R95       1
    RHS1      R96       1
    RHS1      R97       1
    RHS1      R98       1
    RHS1      R99       1
    RHS1      R100      1
    RHS1      R101      1
    RHS1      R102      1
    RHS1      R103      1
    RHS1      R104      1
    RHS1      R105      1
    RHS1      R106      1
    RHS1      R107      1
    RHS1      R108      1
    RHS1      R109      1
    RHS1      R110      1
    RHS1      R111      1
    RHS1      R112      1
    RHS1      R113      1
    RHS1      R114      1
    RHS1      R115      1
    RHS1      R116      1
    RHS1      R117      1
    RHS1      R118      1
    RHS1      R119      1
    RHS1      R120      1
    RHS1      R121      1
    RHS1      R122      1
    RHS1      R123      1
    RHS1      R124      1
    RHS1      R125      1
    RHS1      R126      1
    RHS1      R127      1
    RHS1      R128      1
    RHS1      R129      1
    RHS1      R130      1
    RHS1      R131      1
    RHS1      R132      1
    RHS1      R133      1
    RHS1      R134      1
    RHS1      R135      1
    RHS1      R136      1
    RHS1      R137      1
    RHS1      R138      1
    RHS1      R139      1
    RHS1      R140      1
    RHS1      R141      1
    RHS1      R142      1
    RHS1      R143      1
    RHS1      R144      1
    RHS1      R145      1
    RHS1      R146      1
    RHS1      R147      1
    RHS1      R148      1
    RHS1      R149      1
    RHS1      R150      1
    RHS1      R151      1
    RHS1      R152      1
    RHS1      R153      1
    RHS1      R154      1
    RHS1      R155      1
    RHS1      R156      1
    RHS1      R157      1
    RHS1      R158      1
    RHS1      R159      1
    RHS1      R160      1
    RHS1      R161      1
    RHS1      R162      1
    RHS1      R163      1
    RHS1      R164      1
    RHS1      R165      1
    RHS1      R166      1
    RHS1      R167      1
    RHS1      R168      1
    RHS1      R169      1
    RHS1      R170      1
    RHS1      R171      1
    RHS1      R172      1
    RHS1      R173      1
    RHS1      R174      1
    RHS1      R175      1
    RHS1      R176      1
    RHS1      R177      1
    RHS1      R178      1
    RHS1      R179      1
    RHS1      R180      1
    RHS1      R181      1
    RHS1      R182      1
    RHS1      R183      1
    RHS1      R184      1
    RHS1      R185      1
    RHS1      R186      1
    RHS1      R187      1
    RHS1      R188      1
    RHS1      R189      1
    RHS1      R190      1
    RHS1      R191      1
    RHS1      R192      1
    RHS1      R193      1
    RHS1      R194      1
    RHS1      R195      1
    RHS1      R196      1
    RHS1      R197      1
    RHS1      R198      1
    RHS1      R199      1
    RHS1      R200      1
    RHS1      R201      1
    RHS1      R202      1
    RHS1      R203      1
    RHS1      R204      1
    RHS1      R205      1
    RHS1      R206      1
    RHS1      R207      1
    RHS1      R208      1
    RHS1      R209      1
BOUNDS
 UP BND1      X0        1
 UP BND1      X1        1
 UP BND1      X2        1
 UP BND1      X3        1
 UP BND1      X4        1
 UP BND1      X5        1
 UP BND1      X6        1
 UP BND1      X7        1
 UP BND1      X8        1
 UP BND1      X9        1
 UP BND1      X10       1
 UP BND1      X11       1
 UP BND1      X12       1
 UP BND1      X13       1
 UP BND1      X14       1
 UP BND1      X15       1
 UP BND1      X16       1
 UP BND1      X17       1
 UP BND1      X18       1
 UP BND1      X19       1
 UP BND1      X20       1
 UP BND1      X21       1
 UP BND1      X22       1
 UP BND1      X23       1
 UP BND1      X24       1
 UP BND1      X25       1
 UP BND1      X26       1
 UP BND1      X27       1
 UP BND1      X28       1
 UP BND1      X29       1
 UP BND1      X30       1
 UP BND1      X31       1
 UP BND1      X32       1
 UP BND1      X33       1
 UP BND1      X34       1
 UP BND1      X35       1
 UP BND1      X36       1
 UP BND1      X37       1
 UP BND1      X38       1
 UP BND1      X39       1
 UP BND1      X40       1
 UP BND1      X41       1
 UP BND1      X42       1
 UP BND1      X43       1
 UP BND1      X44       1
 UP BND1      X45       1
 UP BND1      X46       1
 UP BND1      X47       1
 UP BND1      X48       1
 UP BND1      X49       1
 UP BND1      X50       1
 UP BND1      X51       1
 UP BND1      X52       1
 UP BND1      X53       1
 UP BND1      X54       1
 UP BND1      X55       1
 UP BND1      X56       1
 UP BND1      X57       1
 UP BND1      X58       1
 UP BND1      X59       1
 UP BND1      X60       1
 UP BND1      X61       1
 UP BND1      X62       1
 UP BND1      X63       1
 UP BND1      X64       1
 UP BND1      X65       1
 UP BND1      X66       1
 UP BND1      X67       1
 UP BND1      X68       1
 UP BND1      X69       1
 UP BND1      X70       1
 UP BND1      X71       1
 UP BND1      X72       1
 UP BND1      X73       1
 UP BND1      X74       1
 UP BND1      X75       1
 UP BND1      X76       1
 UP BND1      X77       1
 UP BND1      X78       1
 UP BND1      X79       1
 UP BND1      X80       1
 UP BND1      X81       1
 UP BND1      X82       1
 UP BND1      X83       1
 UP BND1      X84       1
 UP BND1      X85       1
 UP BND1      X86       1
 UP BND1      X87       1
 UP BND1      X88       1
 UP BND1      X89       1
 UP BND1      X90       1
 UP BND1      X91       1
 UP BND1      X92       1
 UP BND1      X93       1
 UP BND1      X94       1
 UP BND1      X95       1
 UP BND1      X96       1
 UP BND1      X97       1
 UP BND1      X98       1
 UP BND1      X99       1
 UP BND1      X100      1
 UP BND1      X101      1
 UP BND1      X102      1
 UP BND1      X103      1
 UP BND1      X104      1
 UP BND1      X105      1
 UP BND1      X106      1
 UP BND1      X107      1
 UP BND1      X108      1
 UP BND1      X109      1
 UP BND1      X110      1
 UP BND1      X111      1
 UP BND1      X112      1
 UP BND1      X113      1
 UP BND1      X114      1
 UP BND1      X115      1
 UP BND1      X116      1
 UP BND1      X117      1
 UP BND1      X118      1
 UP BND1      X119      1
ENDATA
